100
300
210
209
205
205
204
204
202
199
199
199
197
196
196
195
193
191
189
186
186
184
184
182
181
181
179
177
175
175
175
172
172
166
166
163
162
160
159
157
155
150
150
149
145
145
145
145
144
144
144
141
140
137
136
135
131
131
130
126
125
123
121
119
119
118
117
115
114
114
111
109
109
109
106
103
102
100
97
95
94
94
89
86
86
85
83
82
79
79
77
77
74
73
73
72
71
69
69
67
62
61
